Maximize
x0_0+x0_1+x0_2+x1_0+x1_1+x1_2+x2_0+x2_1+x2_2

Subject To
x0_0+x0_1+x0_2<=1
x1_0+x1_1+x1_2<=1
x2_0+x2_1+x2_2<=1
x0_0+x1_0+x2_0<=1
x0_1+x1_1+x2_1<=1
x0_2+x1_2+x2_2<=1
x0_1+x1_0<=1
x0_2+x1_1+x2_0<=1
x2_1+x1_0<=1
x2_2+x1_1+x0_0<=1
x2_1+x1_2<=1
x0_1+x1_2<=1

Bounds
x0_0<=1
x0_0>=0
x0_1<=1
x0_1>=0
x0_2<=1
x0_2>=0
x1_0<=1
x1_0>=0
x1_1<=1
x1_1>=0
x1_2<=1
x1_2>=0
x2_0<=1
x2_0>=0
x2_1<=1
x2_1>=0
x2_2<=1
x2_2>=0

End